input.smt2
(declare-const a0 Real)
(declare-const a1 Real)
(declare-const a2 Real)
(declare-const a3 Real)
(declare-const a4 Real)
(declare-const a5 Real)
(declare-const a6 Real)
(declare-const a7 Real)
(declare-const a8 Real)
(declare-const a9 Real)
(declare-const a10 Real)
(declare-const a11 Real)
(declare-const a12 Real)
(declare-const a13 Real)
(declare-const a14 Real)
(assert (= a10 (+(* -4.00 a0) (* 8.00 a6) 0.0)))
(assert (not (= a11 (+ (/ 7.00 a8) 0.0))))
(assert (not (= a8 0)))
(check-sat)
