input.txt
2
8
2 4 
3 9
1 1
10 100
3 9
4 16
5 25
7 49
